37
120
83	1
82	1
81	2
78	1
76	1
74	1
72	1
69	1
68	1
67	1
65	1
62	2
58	2
56	2
53	1
52	1
51	1
50	2
49	1
46	3
45	2
44	2
43	2
42	2
41	1
39	1
38	1
37	1
36	1
35	2
34	1
32	1
31	2
30	1
28	1
27	1
24	1
